results/res_prop_muc/res_Cimatti_mathsat_cores/QF_UF/SEQ013_size5.smt.smt2.out

real	0m1.697s
user	0m1.585s
sys	0m0.059s
